c 3 - XORSAT
p cnf 20 80
-1 -7 -9 0
-1 7 9 0
1 -7 9 0
1 7 -9 0
-10 -17 -18 0
-10 17 18 0
10 -17 18 0
10 17 -18 0
4 7 8 0
-4 -7 8 0
-4 7 -8 0
4 -7 -8 0
1 3 8 0
-1 -3 8 0
-1 3 -8 0
1 -3 -8 0
14 16 18 0
-14 -16 18 0
-14 16 -18 0
14 -16 -18 0
6 14 15 0
-6 -14 15 0
-6 14 -15 0
6 -14 -15 0
-1 -4 -11 0
-1 4 11 0
1 -4 11 0
1 4 -11 0
6 12 19 0
-6 -12 19 0
-6 12 -19 0
6 -12 -19 0
-5 -13 -17 0
-5 13 17 0
5 -13 17 0
5 13 -17 0
-10 -11 -14 0
-10 11 14 0
10 -11 14 0
10 11 -14 0
8 10 19 0
-8 -10 19 0
-8 10 -19 0
8 -10 -19 0
2 11 5 0
-2 -11 5 0
-2 11 -5 0
2 -11 -5 0
4 16 20 0
-4 -16 20 0
-4 16 -20 0
4 -16 -20 0
13 15 17 0
-13 -15 17 0
-13 15 -17 0
13 -15 -17 0
3 13 6 0
-3 -13 6 0
-3 13 -6 0
3 -13 -6 0
-9 -12 -16 0
-9 12 16 0
9 -12 16 0
9 12 -16 0
15 19 20 0
-15 -19 20 0
-15 19 -20 0
15 -19 -20 0
2 3 5 0
-2 -3 5 0
-2 3 -5 0
2 -3 -5 0
2 9 12 0
-2 -9 12 0
-2 9 -12 0
2 -9 -12 0
-7 -18 -20 0
-7 18 20 0
7 -18 20 0
7 18 -20 0
